(set-info :status unknown)
(declare-fun mem0 () (_ BitVec 8))
(declare-fun C () (_ BitVec 54))
(declare-fun C3 () (_ BitVec 11))
(declare-fun C2 () (_ BitVec 11))
(assert
 (let ((?x13413 (ite (and (distinct ((_ extract 3 2) C) (_ bv0 2)) true) (ite (and (distinct ((_ extract 3 3) C) (_ bv0 1)) true) (_ bv3 32) (_ bv2 32)) (ite (and (distinct ((_ extract 1 1) C) (_ bv0 1)) true) (_ bv1 32) (_ bv0 32)))))
 (let ((?x12013 (ite (and (distinct ((_ extract 6 6) C) (_ bv0 1)) true) (_ bv6 32) (ite (and (distinct ((_ extract 5 5) C) (_ bv0 1)) true) (_ bv5 32) (_ bv4 32)))))
 (let ((?x850 (ite (and (distinct ((_ extract 10 9) C) (_ bv0 2)) true) (ite (and (distinct ((_ extract 10 10) C) (_ bv0 1)) true) (_ bv10 32) (_ bv9 32)) (ite (and (distinct ((_ extract 8 8) C) (_ bv0 1)) true) (_ bv8 32) (_ bv7 32)))))
 (let ((?x21295 (ite (and (distinct ((_ extract 13 13) C) (_ bv0 1)) true) (_ bv13 32) (ite (and (distinct ((_ extract 12 12) C) (_ bv0 1)) true) (_ bv12 32) (_ bv11 32)))))
 (let ((?x10626 (ite (and (distinct ((_ extract 13 7) C) (_ bv0 7)) true) (ite (and (distinct ((_ extract 13 11) C) (_ bv0 3)) true) ?x21295 ?x850) (ite (and (distinct ((_ extract 6 4) C) (_ bv0 3)) true) ?x12013 ?x13413))))
 (let ((?x19524 (ite (and (distinct ((_ extract 17 16) C) (_ bv0 2)) true) (ite (and (distinct ((_ extract 17 17) C) (_ bv0 1)) true) (_ bv17 32) (_ bv16 32)) (ite (and (distinct ((_ extract 15 15) C) (_ bv0 1)) true) (_ bv15 32) (_ bv14 32)))))
 (let ((?x13958 (ite (and (distinct ((_ extract 20 20) C) (_ bv0 1)) true) (_ bv20 32) (ite (and (distinct ((_ extract 19 19) C) (_ bv0 1)) true) (_ bv19 32) (_ bv18 32)))))
 (let ((?x13320 (ite (and (distinct ((_ extract 23 23) C) (_ bv0 1)) true) (_ bv23 32) (ite (and (distinct ((_ extract 22 22) C) (_ bv0 1)) true) (_ bv22 32) (_ bv21 32)))))
 (let ((?x11352 (ite (and (distinct ((_ extract 26 26) C) (_ bv0 1)) true) (_ bv26 32) (ite (and (distinct ((_ extract 25 25) C) (_ bv0 1)) true) (_ bv25 32) (_ bv24 32)))))
 (let ((?x20987 (ite (and (distinct ((_ extract 26 21) C) (_ bv0 6)) true) (ite (and (distinct ((_ extract 26 24) C) (_ bv0 3)) true) ?x11352 ?x13320) (ite (and (distinct ((_ extract 20 18) C) (_ bv0 3)) true) ?x13958 ?x19524))))
 (let ((?x9081 (ite (and (distinct ((_ extract 30 29) C) (_ bv0 2)) true) (ite (and (distinct ((_ extract 30 30) C) (_ bv0 1)) true) (_ bv30 32) (_ bv29 32)) (ite (and (distinct ((_ extract 28 28) C) (_ bv0 1)) true) (_ bv28 32) (_ bv27 32)))))
 (let ((?x4867 (ite (and (distinct ((_ extract 33 33) C) (_ bv0 1)) true) (_ bv33 32) (ite (and (distinct ((_ extract 32 32) C) (_ bv0 1)) true) (_ bv32 32) (_ bv31 32)))))
 (let ((?x2724 (ite (and (distinct ((_ extract 37 36) C) (_ bv0 2)) true) (ite (and (distinct ((_ extract 37 37) C) (_ bv0 1)) true) (_ bv37 32) (_ bv36 32)) (ite (and (distinct ((_ extract 35 35) C) (_ bv0 1)) true) (_ bv35 32) (_ bv34 32)))))
 (let ((?x9130 (ite (and (distinct ((_ extract 40 40) C) (_ bv0 1)) true) (_ bv40 32) (ite (and (distinct ((_ extract 39 39) C) (_ bv0 1)) true) (_ bv39 32) (_ bv38 32)))))
 (let ((?x10820 (ite (and (distinct ((_ extract 40 34) C) (_ bv0 7)) true) (ite (and (distinct ((_ extract 40 38) C) (_ bv0 3)) true) ?x9130 ?x2724) (ite (and (distinct ((_ extract 33 31) C) (_ bv0 3)) true) ?x4867 ?x9081))))
 (let ((?x22628 (ite (and (distinct ((_ extract 44 43) C) (_ bv0 2)) true) (ite (and (distinct ((_ extract 44 44) C) (_ bv0 1)) true) (_ bv44 32) (_ bv43 32)) (ite (and (distinct ((_ extract 42 42) C) (_ bv0 1)) true) (_ bv42 32) (_ bv41 32)))))
 (let ((?x13875 (ite (and (distinct ((_ extract 47 47) C) (_ bv0 1)) true) (_ bv47 32) (ite (and (distinct ((_ extract 46 46) C) (_ bv0 1)) true) (_ bv46 32) (_ bv45 32)))))
 (let ((?x10148 (ite (and (distinct ((_ extract 50 50) C) (_ bv0 1)) true) (_ bv50 32) (ite (and (distinct ((_ extract 49 49) C) (_ bv0 1)) true) (_ bv49 32) (_ bv48 32)))))
 (let ((?x2667 (ite (and (distinct ((_ extract 53 53) C) (_ bv0 1)) true) (_ bv53 32) (ite (and (distinct ((_ extract 52 52) C) (_ bv0 1)) true) (_ bv52 32) (_ bv51 32)))))
 (let ((?x21004 (ite (and (distinct ((_ extract 53 48) C) (_ bv0 6)) true) (ite (and (distinct ((_ extract 53 51) C) (_ bv0 3)) true) ?x2667 ?x10148) (ite (and (distinct ((_ extract 47 45) C) (_ bv0 3)) true) ?x13875 ?x22628))))
 (let ((?x12968 (ite (and (distinct ((_ extract 53 27) C) (_ bv0 27)) true) (ite (and (distinct ((_ extract 53 41) C) (_ bv0 13)) true) ?x21004 ?x10820) (ite (and (distinct ((_ extract 26 14) C) (_ bv0 13)) true) ?x20987 ?x10626))))
 (let (($x3596 (and (and (distinct (bvsub C2 C3) (_ bv0 11)) true) (= (bvand (bvsub C2 C3) (bvsub (bvsub C2 C3) (_ bv1 11))) (_ bv0 11)))))
 (and (and (and (distinct C (_ bv0 54)) true) (= (bvand C (bvsub C (_ bv1 54))) (_ bv0 54))) $x3596 (bvslt ?x12968 (_ bv11 32)) (and (distinct mem0 mem0) true)))))))))))))))))))))))))
(check-sat)
